/*********************************************
 * OPL 22.1.0.0 Data
 * Author: User
 * Creation Date: Oct 20, 2023 at 12:28:31 PM
 *********************************************/
nFacilities = 3;
nCustomers = 4;

FacilityFixedCosts = [1 2 3];

CustomerCosts = [
  [1 2 3 4],
  [2 3 4 1],
  [3 4 1 2]
];
